c File: instances/18_0.45_1.col
c
c Description: Random graph of size 18 vertices and P(0.44999999999999996) of edges between any two vertices.
p col 18 153
e 1 3
e 1 5
e 1 9
e 1 11
e 1 13
e 1 14
e 1 18
e 2 9
e 2 10
e 2 13
e 2 14
e 3 6
e 3 7
e 3 8
e 3 9
e 3 14
e 3 15
e 3 16
e 4 6
e 4 10
e 4 11
e 4 14
e 4 15
e 4 17
e 5 6
e 5 8
e 5 9
e 5 10
e 5 11
e 5 12
e 5 13
e 5 18
e 6 8
e 6 11
e 6 14
e 6 16
e 6 18
e 7 8
e 7 9
e 7 14
e 7 17
e 8 9
e 8 13
e 8 14
e 8 15
e 8 16
e 9 11
e 9 12
e 9 16
e 9 18
e 10 12
e 10 14
e 10 17
e 10 18
e 11 14
e 11 18
e 12 14
e 12 16
e 12 18
e 13 14
e 13 17
e 13 18
e 14 16
e 15 16
e 15 18